problems/csplib-prob015/SchursLemma-models/noch/O2/lingeling/model_1_3-5-17-solution000001.eprime-solution
language ESSENCE' 1.0

letting boxes_PartitionAsSet_ExplicitR5_ExplicitVarSizeWithMarker_Marker be [2, 2, 2, 4, 7; int(1..5)]
letting boxes_PartitionAsSet_ExplicitR5_ExplicitVarSizeWithMarker_Values be
        [[3, 6, 1, 1, 1, 1, 1, 1, 1, 1, 1, 1, 1, 1, 1, 1, 1; int(1..17)],
         [5, 13, 1, 1, 1, 1, 1, 1, 1, 1, 1, 1, 1, 1, 1, 1, 1; int(1..17)],
         [8, 10, 1, 1, 1, 1, 1, 1, 1, 1, 1, 1, 1, 1, 1, 1, 1; int(1..17)],
         [1, 2, 4, 16, 1, 1, 1, 1, 1, 1, 1, 1, 1, 1, 1, 1, 1; int(1..17)],
         [7, 9, 11, 12, 14, 15, 17, 1, 1, 1, 1, 1, 1, 1, 1, 1, 1; int(1..17)]; int(1..5)]
