problems/csplib-prob015/SchursLemma-models/noch/O2/lingeling/model_1_3-5-17-solution000001.solution
language Essence 1.3

letting boxes be partition({1, 2, 4, 16}, {3, 6}, {5, 13}, {7, 9, 11, 12, 14, 15, 17}, {8, 10})
